NAME : gr96.tsp
TYPE : TOUR
DIMENSION : 96
TOUR_LENGTH : 571.5296242440681
TOUR_SECTION
1
30
31
32
36
37
38
35
34
33
44
45
46
47
48
54
58
56
57
69
70
82
81
83
91
87
90
89
88
86
85
84
74
75
77
76
68
67
66
64
63
62
61
60
59
71
72
73
78
92
93
94
95
96
65
28
27
26
22
23
24
25
21
19
18
20
17
16
15
14
13
12
10
9
7
8
6
5
4
2
3
29
11
50
52
53
55
51
41
42
43
49
40
39
79
80
-1
